NAME : OMNETRUN
COMMENT : 524.61
TYPE : CVRP
DIMENSION : 21
EDGE_WEIGHT_TYPE : EUC_2D
CAPACITY : 21
NODE_COORD_SECTION
1 0.107093 -0.77924
2 113.962 -839.967
3 211.421 -1364.18
4 166.451 -2444.75
5 88.9107 -3758.14
6 213.168 -4683.61
7 9.32029 -4980.67
8 419.434 -50.9501
9 287.483 -478.693
10 479.869 -774.992
11 353.944 -1896.8
12 409.999 -3158.55
13 262.837 -5273.51
14 310.331 -5677.63
15 688.097 -1234.94
16 742.164 -1758.55
17 550.244 -2627.98
18 731.541 -2988.61
19 500.951 -3676.63
20 574.902 -4551.02
21 685.267 -5011.3
DEMAND_SECTION
1 0
2 1
3 1
4 1
5 1
6 1
7 1
8 1
9 1
10 1
11 1
12 1
13 1
14 1
15 1
16 1
17 1
18 1
19 1
20 1
21 1
DEPOT_SECTION
1
-1
EOF
